14879
1 0 1 0 0 1 1 0 0 0 0 1 0 0 1 1 0 1 0 0 1 0 0 0 1 0 0 0 0 0 
20 0 6 2 6 5 2 24 20 11 5 20 20 20 2 20 14 17 5 11 2 0 5 2 5 20 2 24 5 5 5 11 6 0 20 20 24 15 2 14 0 14 15 2 24 14 2 20 0 14 5 20 14 11 6 20 14 5 0 14 0 24 20 0 11 11 5 0 5 5 6 6 11 17 15 20 5 20 20 5 20 0 20 11 0 17 17 0 20 5 17 15 17 0 0 5 14 5 5 6 6 0 14 11 17 11 0 0 14 20 14 2 14 11 11 0 24 15 24 24 11 6 24 20 6 0 24 15 0 20 11 0 24 0 20 14 0 24 20 17 0 20 20 14 20 24 11 11 17 24 